n = 29;
lu = [|-499, 327
      |-364, 453
      |-274, 832
      |139, 494
      |239, 249
      |-460, 493
      |189, 422
      |-184, 566
      |144, 240
      |-264, 70
      |460, 537
      |-697, -224
      |-208, 6
      |175, 220
      |-734, 680
      |403, 666
      |31, 545
      |-267, 828
      |-187, 296
      |554, 725
      |-601, -338
      |-727, -188
      |-405, -259
      |-706, 694
      |-589, -92
      |-183, 497
      |-344, 735
      |-283, 209
      |-828, -186|];
